p cnf 7230 16
865 -1132 0
869 -1126 0
-865 -1130 1131 0
-869 -1124 1125 0
865 -1135 0
-865 -1133 1134 0
869 -1129 0
-869 -1127 1128 0
-1131 1132 0
-1125 1126 0
-1134 1135 0
1133 -1135 0
1130 -1132 0
-1128 1129 0
1127 -1129 0
1124 -1126 0
